(define-funs-rec
  ((u5
    ((x Int) (y Int) (z Int)) Int)
   (v5
    ((x Int) (y Int) (z Int)) Int))
  ((ite (<= x 0) y (+ (u5 (- x 1) y z) (v5 (- x 1) y z)))
   (ite (<= x 0) z (u5 (- x 1) y z))))
(define-fun
  w5
  ((x Int)) Int (u5 x 1 0))
(define-fun
  u1
  ((x Int) (y Int)) Int (ite (<= x 0) y 0))
(define-funs-rec
  ((u0
    ((x Int) (y Int) (z Int)) Int)
   (v0
    ((x Int) (y Int) (z Int)) Int))
  ((ite (<= x 0) y (+ (u0 (- x 1) y z) (v0 (- x 1) y z)))
   (ite (<= x 0) z (u0 (- x 1) y z))))
(define-fun
  h5
  ((x Int)) Int x)
(define-fun
  h0
  ((x Int)) Int x)
(define-fun
  g5
  ((x Int)) Int x)
(define-fun
  g4
  ((x Int)) Int (div x 2))
(define-fun
  g2
  ((x Int)) Int (- (+ 1 (mod x 2)) (div x 2)))
(define-fun
  g1
  ((x Int)) Int (- (- x 2) 1))
(define-fun
  v1
  ((x Int)) Int (u1 (g1 x) 1))
(define-fun
  w0
  ((x Int)) Int (u0 x 2 (v1 x)))
(define-fun
  small
  ((x Int)) Int (div (w0 x) 2))
(define-fun
  g0
  ((x Int)) Int x)
(define-fun
  f4
  ((x Int)) Int (+ x x))
(define-fun-rec
  u4
  ((x Int) (y Int)) Int (ite (<= x 0) y (f4 (u4 (- x 1) y))))
(define-fun
  v4
  ((x Int)) Int (u4 (g4 x) 1))
(define-fun
  f3
  ((x Int)) Int (* x x))
(define-fun-rec
  u3
  ((x Int) (y Int)) Int (ite (<= x 0) y (f3 (u3 (- x 1) y))))
(define-fun
  v3
  ((x Int)) Int (u3 1 (v4 x)))
(define-fun-rec
  u2
  ((x Int) (y Int)) Int (ite (<= x 0) y (v3 (u2 (- x 1) y))))
(define-fun
  v2
  ((x Int)) Int (u2 (g2 x) (w5 x)))
(assert-not
  (forall ((c Int)) (or (not (>= c 0)) (= (small c) (v2 c)))))
